32
stage3:NPT step 0, QM E = -2758844.455279 kJ/mol
N     66.99031636    39.05935525    36.59564596
C     66.53934054    37.98687470    35.93028252
H     65.95883656    37.26202187    36.48164764
N     66.99374853    37.88563653    34.72460683
C     67.75026252    39.05211131    34.54581835
C     68.65452567    39.42175330    33.50475546
O     68.90053830    38.75351317    32.51210585
N     69.20176680    40.66694819    33.76456178
H     69.75839887    40.97531915    32.98023526
C     69.02025661    41.46009875    34.88341027
N     69.54941115    42.69325601    34.82732404
H     69.89276497    43.06198122    33.95196703
H     69.02058556    43.35141867    35.38163940
N     68.35904271    40.99454929    35.93855241
C     67.79072959    39.79308731    35.71783014
C     64.86165145    37.63392456    29.09446354
N     63.56041163    37.53692305    29.08690268
C     65.45017631    37.61212759    30.40491611
C     63.26064302    37.57976118    30.43207356
N     64.30228670    37.70266446    31.20562930
C     64.23950930    37.68605180    32.64656308
N     65.62558854    37.77130589    27.89294735
C     66.73339467    37.48629063    30.82629388
H     62.27026038    37.45611971    30.84990010
H     64.90802353    38.41894144    33.11493311
H     63.22573667    37.90601204    33.00334251
O     64.93727859    37.79104683    26.84484165
H     67.56639375    37.42680351    30.12892897
H     67.01796761    37.45483210    31.87594744
O     66.80829614    37.90562242    28.02463389
H     66.84852020    39.35236342    37.58443449
H     64.48884342    36.66441677    33.04584818
32
stage3:NPT step 10, QM E = -2758974.471152 kJ/mol
N     66.99537103    39.12178761    36.63792667
C     66.52453473    37.97967281    35.94412722
H     65.90542258    37.20978098    36.38043756
N     67.01453739    37.88383738    34.70384583
C     67.75802062    39.03759824    34.57013795
C     68.63794612    39.39752893    33.48479520
O     68.86813951    38.74574939    32.46540254
N     69.26445840    40.67800911    33.71906526
H     69.76125197    41.13727810    32.96915317
C     69.03635666    41.40680092    34.84780506
N     69.49459838    42.66983712    34.79969661
H     70.10651562    43.03218736    34.08250794
H     69.35634178    43.25724282    35.60959765
N     68.32336163    41.01554421    35.91271437
C     67.74187232    39.80726175    35.72998882
C     64.88283890    37.59496963    29.06637345
N     63.60275302    37.53128619    29.07542028
C     65.47606757    37.67190064    30.39720656
C     63.27632097    37.64796219    30.37559922
N     64.31030358    37.71402052    31.20442361
C     64.27906657    37.67018001    32.69237715
N     65.61604197    37.78888454    27.79484300
C     66.72066935    37.55917753    30.89666107
H     62.25039814    37.64990280    30.71940523
H     65.01193081    38.39900778    33.05997626
H     63.23971428    37.97836243    32.86024462
O     64.99086260    37.81155833    26.81201766
H     67.55250022    37.43632371    30.20622037
H     66.91821509    37.56827955    31.96653809
O     66.81722928    37.96098487    27.99956204
H     66.80404818    39.36578787    37.63160051
H     64.49223941    36.67673672    33.10043109
32
stage3:NPT step 20, QM E = -2758957.827350 kJ/mol
N     66.94647815    39.10361617    36.60536717
C     66.55439076    37.97047350    35.94203036
H     65.82575920    37.30733092    36.38445319
N     67.00138118    37.91587103    34.74674846
C     67.80069756    39.02487169    34.59016452
C     68.63765522    39.41270979    33.45731717
O     68.80917019    38.77261387    32.41984350
N     69.27924635    40.61565096    33.67523486
H     69.72757848    41.04358181    32.87775541
C     69.01659852    41.40389082    34.81161273
N     69.47173113    42.67354488    34.80696046
H     70.17713523    42.83793490    34.10305633
H     69.72387793    43.04138716    35.71316918
N     68.31136200    41.02773864    35.85466480
C     67.71218519    39.84787057    35.71171217
C     64.94397553    37.57259127    29.04880834
N     63.64203660    37.55708631    29.04510437
C     65.48877711    37.70505580    30.39543955
C     63.28859383    37.69102149    30.39091505
N     64.32310125    37.69811780    31.19245780
C     64.30744360    37.69503581    32.67862851
N     65.65451225    37.79416529    27.79680497
C     66.72540640    37.63653591    30.94224011
H     62.27573054    37.85693340    30.73341348
H     65.06815232    38.37869573    33.07529003
H     63.35701425    38.03573949    33.10759708
O     65.02617864    37.82377800    26.72094189
H     67.61296717    37.50994635    30.32583524
H     66.91215220    37.70947277    32.01160918
O     66.82113929    38.00350006    27.93763869
H     66.84491115    39.34011074    37.62803552
H     64.47170871    36.67421535    33.12001941
32
stage3:NPT step 30, QM E = -2758944.289518 kJ/mol
N     67.11751977    39.24809290    36.67679329
C     66.70210578    38.10659420    36.06328880
H     66.06609681    37.36385180    36.52179323
N     67.19132681    38.04153399    34.82393663
C     68.00119828    39.15166902    34.66551168
C     68.78498589    39.52294035    33.53888056
O     68.90535270    38.93652401    32.47105942
N     69.42239848    40.74117890    33.77098619
H     69.96709085    41.06524148    32.98460609
C     69.16813003    41.55740845    34.85316665
N     69.71382048    42.78356955    34.87633796
H     70.33699664    43.10713238    34.15034995
H     69.92598647    43.08878185    35.81544980
N     68.46288439    41.15556880    35.90715833
C     67.89849726    39.94359185    35.76186656
C     65.14072098    37.71713830    29.14959072
N     63.85455164    37.70911441    29.15777736
C     65.70669808    37.77950570    30.49752571
C     63.49869165    37.82400339    30.46859396
N     64.51943633    37.81192734    31.30344829
C     64.51911701    37.80318315    32.78322366
N     65.86474238    37.90306729    27.82189934
C     66.93666902    37.83254210    31.04575594
H     62.49654282    37.91039074    30.86729052
H     65.36676159    38.42457781    33.09751067
H     63.54353996    38.25901731    32.99268398
O     65.26230361    37.92298082    26.81456369
H     67.85371312    37.83470081    30.46029076
H     67.06261851    37.86076333    32.12607269
O     67.05580745    38.14737704    27.99059757
H     67.01954879    39.39469479    37.68339085
H     64.65270607    36.78098762    33.18443335
32
stage3:NPT step 40, QM E = -2758675.452573 kJ/mol
N     67.14143170    39.20328673    36.64686721
C     66.71152114    38.11260249    35.96763481
H     66.19307524    37.33735501    36.51224954
N     67.19313684    37.96793863    34.79718775
C     67.94341934    39.08885340    34.62811972
C     68.74543268    39.52675769    33.51995609
O     68.83586157    38.97138031    32.42303612
N     69.36466768    40.76839851    33.75175584
H     70.03041680    41.12936420    33.08348798
C     69.16655834    41.56669205    34.83987466
N     69.81977623    42.74735375    34.85386001
H     70.25348315    43.14390562    34.03243600
H     69.68150741    43.35185069    35.65108074
N     68.44124735    41.16741623    35.87879718
C     67.94000238    39.94397868    35.76357128
C     65.16270989    37.78945150    29.13620384
N     63.85661404    37.78386846    29.16562187
C     65.72787103    37.74889397    30.48944292
C     63.53657168    37.82363940    30.49090233
N     64.57410423    37.82511247    31.28336322
C     64.52530204    37.81816668    32.72180849
N     65.92488565    37.92859693    27.84041019
C     66.96185655    37.90967553    31.02065563
H     62.49388762    37.81701075    30.77984879
H     65.24941752    38.48828679    33.20139328
H     63.56098734    38.16197540    33.11588199
O     65.26203023    37.90210057    26.80463948
H     67.83882822    38.05525325    30.39338300
H     67.11883085    37.87777401    32.09679949
O     67.09778321    38.17312080    27.97258246
H     67.04500418    39.36271585    37.69255269
H     64.61893635    36.78110679    33.12714948
32
stage3:NPT step 50, QM E = -2758673.541623 kJ/mol
N     67.19203176    39.15854085    36.66194222
C     66.72292487    38.03244552    35.96405670
H     66.06328065    37.31548536    36.43014426
N     67.19839977    37.89471425    34.71138785
C     67.94654588    39.10974432    34.59150137
C     68.68163734    39.57160954    33.47217699
O     68.78799734    39.02652932    32.38407284
N     69.30979839    40.78813276    33.70816346
H     69.85325895    41.05687054    32.90036975
C     69.19023447    41.56627556    34.87599035
N     69.90270713    42.71474067    34.85351856
H     70.16116933    42.98047350    33.91401488
H     69.41783590    43.47956285    35.30080347
N     68.43777533    41.18052364    35.88298625
C     67.92616599    39.88411223    35.72595201
C     65.17713999    37.85400544    29.12667756
N     63.89293440    37.86976052    29.14916247
C     65.76635265    37.79631718    30.43609708
C     63.56327517    37.82261766    30.47730323
N     64.61137406    37.82176404    31.26247012
C     64.49201197    37.79136418    32.70789347
N     65.92016050    37.97169782    27.86447914
C     66.98509704    37.95261801    30.95679597
H     62.59361444    37.85977877    30.95594843
H     65.28340970    38.42691226    33.12403767
H     63.48422542    38.20916649    32.82285554
O     65.29239292    37.87140039    26.85684845
H     67.84830456    38.07278516    30.30550996
H     67.19086452    37.96085995    32.02512996
O     67.13151839    38.19044361    27.98738876
H     67.08707751    39.37341143    37.67779282
H     64.61250692    36.78117861    33.13313144
32
stage3:NPT step 60, QM E = -2758268.245040 kJ/mol
N     67.24775355    39.06771908    36.63093621
C     66.79114629    37.93895487    35.94020352
H     66.07287236    37.27020289    36.39103980
N     67.19232754    37.95103412    34.73200347
C     67.91869328    39.07923388    34.56126607
C     68.62176241    39.62664696    33.42681591
O     68.76037795    39.09966132    32.33138352
N     69.24979191    40.82434999    33.69320073
H     69.70098401    41.30829812    32.93010185
C     69.19114254    41.50432657    34.85933385
N     69.93323529    42.69642199    34.83808088
H     70.44820036    42.91411339    33.99694035
H     69.51111851    43.48854680    35.30116293
N     68.43937299    41.10125481    35.89637507
C     67.89492492    39.88221129    35.71064717
C     65.19412723    37.92255689    29.11200813
N     63.89898124    37.94637794    29.12805871
C     65.77904669    37.88511708    30.41121091
C     63.59552096    37.86692065    30.44055022
N     64.63521123    37.77628319    31.22449726
C     64.47731881    37.78767214    32.68291683
N     65.94532637    38.01135867    27.89698643
C     67.03718603    37.95566493    30.86823292
H     62.56184403    37.90322509    30.75822886
H     65.16983601    38.51561606    33.12328520
H     63.47283760    38.10297059    32.99116029
O     65.31663381    37.84153089    26.89260834
H     67.91295005    37.95535038    30.22264715
H     67.18560490    37.95659628    31.94606300
O     67.13245726    38.19919840    28.03156602
H     67.12175362    39.36029505    37.66676651
H     64.61806994    36.78420401    33.14734959
32
stage3:NPT step 70, QM E = -2758156.903391 kJ/mol
N     67.28750721    39.05559414    36.67233271
C     66.86154139    37.92784783    35.99853616
H     66.38001182    37.06842266    36.44116201
N     67.17729037    37.96091148    34.69846444
C     67.89995739    39.13043408    34.53165234
C     68.57968277    39.63179053    33.39095829
O     68.73329883    39.19454348    32.25154493
N     69.19365532    40.87027688    33.66724295
H     69.59332196    41.30527337    32.84800878
C     69.16583441    41.52270996    34.86293368
N     69.89876298    42.61842295    34.84927925
H     70.63552231    42.81590721    34.18724780
H     69.85500980    43.27063634    35.61921659
N     68.49840001    41.03254481    35.89241291
C     67.88147381    39.83717201    35.69176001
C     65.18768197    38.01691703    29.11865609
N     63.91015277    38.01070602    29.06745259
C     65.78493836    37.95251319    30.41261881
C     63.58618751    37.91561767    30.38269566
N     64.61266471    37.78335248    31.22826876
C     64.47969445    37.77432608    32.70503933
N     65.96459407    38.02514561    27.91072863
C     67.07706559    37.90604525    30.81423618
H     62.56339550    37.89145104    30.73488377
H     65.20175242    38.46807513    33.15309465
H     63.43872015    38.10550186    32.80555880
O     65.34023632    37.81284312    26.89055520
H     67.92140319    38.01855482    30.13734652
H     67.32290804    37.75013599    31.86256714
O     67.16635198    38.22174189    28.07502315
H     67.17644401    39.31116747    37.66875334
H     64.63667982    36.76646379    33.15134432
32
stage3:NPT step 80, QM E = -2758157.473444 kJ/mol
N     67.33299064    39.04753130    36.64786674
C     66.95045592    37.90903795    35.97973973
H     66.59897626    37.08303702    36.58022669
N     67.17666686    37.91827494    34.71585033
C     67.82357975    39.13294381    34.48959357
C     68.57010231    39.69399952    33.33320492
O     68.67829061    39.26982847    32.17142847
N     69.12377931    40.88303956    33.60573962
H     69.62990781    41.28957881    32.83200835
C     69.12889383    41.47166656    34.84350445
N     69.87688782    42.61651217    34.93870191
H     70.51970299    42.70196253    34.16436974
H     70.17367523    42.82097379    35.88221362
N     68.54967516    41.00846701    35.92195672
C     67.94796735    39.85396010    35.71015004
C     65.21719427    38.12118931    29.11495856
N     63.90450023    38.06165609    29.04747771
C     65.77483385    37.98118804    30.44618529
C     63.56731247    37.93854999    30.37611667
N     64.59969098    37.85445738    31.20398933
C     64.49304049    37.75841371    32.68182736
N     66.00076014    38.02648365    27.88671719
C     67.08288285    37.82625803    30.81313600
H     62.55849502    37.94438392    30.76724000
H     65.22447611    38.46014607    33.10133024
H     63.50011536    38.09013853    33.00964888
O     65.40715990    37.78027180    26.89171213
H     67.80897289    38.14596397    30.06860370
H     67.43530270    37.43094685    31.76354231
O     67.19015411    38.24479682    28.07752753
H     67.20648919    39.29327100    37.67752273
H     64.64121447    36.76049085    33.10934418
32
stage3:NPT step 90, QM E = -2758228.747903 kJ/mol
N     67.39686961    39.04379658    36.64971534
C     67.01277863    37.87104760    36.01532721
H     66.46678889    37.07579369    36.50098857
N     67.23007203    37.89841559    34.70213545
C     67.79749657    39.14755395    34.44689403
C     68.43512369    39.67767451    33.26736181
O     68.58884619    39.32125062    32.10509135
N     69.07191890    40.94856234    33.58400589
H     69.62751339    41.36429646    32.85012565
C     69.16013217    41.48262973    34.84045927
N     69.86573128    42.59677463    35.00954871
H     70.44316764    43.00194022    34.28671054
H     70.30850274    42.63552971    35.91648591
N     68.58040941    41.00358869    35.93030302
C     67.97466588    39.81376047    35.66495109
C     65.21204771    38.17640812    29.12292996
N     63.93816831    38.11013053    29.09828776
C     65.76551697    38.00440794    30.45603492
C     63.56278302    37.99965032    30.37401157
N     64.57725981    37.88957972    31.21341413
C     64.50156321    37.80353176    32.65713626
N     66.04167858    38.06119685    27.90948758
C     67.04280199    37.75811075    30.83110273
H     62.51958825    37.99366983    30.66112304
H     65.29322940    38.42904137    33.08772880
H     63.52560999    38.22063875    32.93452759
O     65.48928043    37.73288686    26.86467174
H     67.81197669    38.01116454    30.10441273
H     67.36893697    37.24700868    31.73451589
O     67.22657121    38.27320132    28.04086372
H     67.28298506    39.29721652    37.67674211
H     64.65540051    36.76560528    33.08056232
32
stage3:NPT step 100, QM E = -2758352.596722 kJ/mol
N     67.53131722    39.03017934    36.69498839
C     67.10036914    37.91102119    36.01594686
H     66.55388068    37.11759960    36.50403814
N     67.33728804    37.93589419    34.75215173
C     67.87663051    39.17178113    34.47327306
C     68.41064685    39.81170001    33.25941884
O     68.51090204    39.38647884    32.09103608
N     69.06063997    41.01554393    33.62631145
H     69.50062463    41.43615751    32.82033509
C     69.23306745    41.54415179    34.88337496
N     69.98439028    42.66201791    35.08284189
H     70.26154958    43.25440621    34.31319029
H     70.12536173    42.96078126    36.03729038
N     68.64475539    41.00037696    35.92048626
C     68.04841143    39.87202114    35.68339808
C     65.32245830    38.22566939    29.16910302
N     64.01910726    38.20195571    29.12361991
C     65.81579741    38.06381310    30.49034389
C     63.61608629    38.11225127    30.44164457
N     64.64233875    37.93281804    31.24924896
C     64.59684910    37.85731231    32.70840940
N     66.13802076    38.12701051    27.90428779
C     67.05377326    37.72591981    30.89810707
H     62.58051528    38.09589888    30.75477338
H     65.35972243    38.53952869    33.10339511
H     63.58858724    38.18758831    32.98722294
O     65.63043272    37.74096434    26.91876725
H     67.91009562    37.76599766    30.22814353
H     67.19843993    37.40064918    31.92622064
O     67.33652353    38.35608188    28.05758092
H     67.38317772    39.30850309    37.70942714
H     64.71354910    36.82437355    33.06471196
32
stage3:NPT step 110, QM E = -2758351.247121 kJ/mol
N     67.58934082    38.99578631    36.65491804
C     67.10437197    37.89159497    36.01711116
H     66.71785509    37.04451453    36.56434001
N     67.35260001    37.92850905    34.70370328
C     67.93434116    39.17317513    34.48546937
C     68.38503375    39.84083794    33.26342179
O     68.33252149    39.44292967    32.10379169
N     69.01129874    41.05523705    33.58196958
H     69.41879175    41.59792125    32.83394331
C     69.18672760    41.57199108    34.87599107
N     70.02946589    42.67116855    35.08575630
H     70.11971221    43.27417463    34.28056101
H     69.55930794    43.21522001    35.79502351
N     68.66882753    41.01811873    35.90546517
C     68.03946147    39.80257467    35.69224112
C     65.31735572    38.21395867    29.12659491
N     64.03509694    38.26724135    29.10412904
C     65.82885645    38.05174489    30.47929474
C     63.64724777    38.16586448    30.42980783
N     64.64421184    37.97883076    31.25465691
C     64.56530374    37.85938258    32.70438550
N     66.20661058    38.14865462    27.92948373
C     67.00080974    37.66186007    30.99232335
H     62.63016443    38.22282794    30.79452778
H     65.34416239    38.45687904    33.19406518
H     63.60253120    38.24997210    33.05640523
O     65.65322903    37.70720302    26.90936604
H     67.87047251    37.60518702    30.34100252
H     67.14640628    37.50214427    32.05864249
O     67.37162653    38.42011637    28.06705882
H     67.47046104    39.26941192    37.65922938
H     64.72496755    36.80370524    33.05384519
32
stage3:NPT step 120, QM E = -2758374.717137 kJ/mol
N     67.60641634    38.96965404    36.62769748
C     67.16277554    37.83661518    35.94995682
H     66.74180288    36.98167038    36.45814132
N     67.34364593    37.92467211    34.66887849
C     67.97191360    39.13430605    34.48367985
C     68.37741177    39.83068969    33.30931895
O     68.15676187    39.52170001    32.14200003
N     69.00418812    41.12708090    33.56516819
H     69.40071068    41.53450933    32.73037936
C     69.14766113    41.58138766    34.81986554
N     69.96964526    42.68087173    35.04967573
H     70.33123812    43.05231118    34.18285625
H     69.46292909    43.34800791    35.61381679
N     68.65857190    41.01723087    35.93584425
C     68.14069560    39.83920788    35.67493282
C     65.34236373    38.18099818    29.12921289
N     64.04444261    38.33221964    29.07858457
C     65.83043536    37.98455620    30.48701311
C     63.67240377    38.22452608    30.39064944
N     64.64728482    38.05884613    31.24589709
C     64.54318694    37.83307421    32.73617940
N     66.21123471    38.11900258    27.91045176
C     66.98940289    37.63585639    31.07956183
H     62.62483823    38.29432702    30.65229481
H     65.30373157    38.52877934    33.11163918
H     63.51840453    38.12525296    32.99668054
O     65.70203121    37.69955687    26.94811801
H     67.88894632    37.55406862    30.47303688
H     67.12695628    37.39350375    32.13126929
O     67.39243487    38.49510130    28.09997632
H     67.53542056    39.25352793    37.62336473
H     64.72249357    36.78883308    33.06524599
32
stage3:NPT step 130, QM E = -2758414.134625 kJ/mol
N     67.66665795    38.95669066    36.58455148
C     67.22168800    37.81248976    35.92384302
H     66.67793953    37.00727370    36.39539864
N     67.36241158    37.91985899    34.61891105
C     68.03029702    39.13571238    34.47118070
C     68.35568901    39.87366173    33.30199765
O     68.00804138    39.60243314    32.15956336
N     68.98481786    41.06882502    33.56335003
H     69.38855152    41.60846212    32.81109281
C     69.15518305    41.60416525    34.84763912
N     69.85818242    42.72294404    34.95579782
H     70.53552322    42.92586709    34.23459624
H     69.78978065    43.43567067    35.66814756
N     68.67591999    41.04767682    35.89098971
C     68.17838743    39.76893014    35.67546087
C     65.38746820    38.13246757    29.15836702
N     64.11874931    38.36178327    29.05276125
C     65.83745711    37.91260081    30.52488481
C     63.65338651    38.30570638    30.36175941
N     64.62554758    38.07089275    31.25003875
C     64.53500813    37.85740753    32.70673634
N     66.24932067    38.12104056    27.98224797
C     67.01681109    37.62389917    31.11503819
H     62.62041231    38.34900167    30.68084217
H     65.17614803    38.49538703    33.32748651
H     63.51695961    38.13345302    33.00804199
O     65.74362388    37.67437356    26.93782836
H     67.94228753    37.56880066    30.54565120
H     67.02421547    37.42577103    32.18482062
O     67.34849656    38.54206960    28.12724773
H     67.55367179    39.23084620    37.60533691
H     64.67502439    36.78737369    33.03987150
32
stage3:NPT step 140, QM E = -2758190.058113 kJ/mol
N     67.72605644    38.90377849    36.63014906
C     67.23461560    37.83207875    35.90424627
H     66.77014998    37.01916707    36.44262003
N     67.42193419    37.93289843    34.59952449
C     68.07833416    39.11199689    34.44089785
C     68.28902051    39.90190341    33.25632699
O     67.90037981    39.67074559    32.11813678
N     69.03847908    41.04620271    33.59355875
H     69.16801397    41.60597122    32.76290846
C     69.15763599    41.59227717    34.81446266
N     69.79651044    42.83357561    34.82389055
H     70.49322486    43.00851514    34.11390099
H     69.99427226    43.07158594    35.78531727
N     68.67098624    40.98776957    35.91368265
C     68.23030861    39.78085737    35.64567533
C     65.42905628    38.08587615    29.20070111
N     64.17364120    38.36818540    29.08142622
C     65.83699549    37.86541131    30.56344591
C     63.70115498    38.37077210    30.36219973
N     64.61460669    38.03650085    31.24992950
C     64.46328143    37.88323680    32.71576551
N     66.22765287    38.07803417    27.98286241
C     67.02758942    37.62392106    31.14342780
H     62.66789323    38.59804134    30.58900986
H     65.28161475    38.50999052    33.09115780
H     63.45079715    38.24444889    32.93442149
O     65.79803667    37.66551684    26.98579367
H     67.95224673    37.60372391    30.57041385
H     67.20590851    37.57350410    32.21553062
O     67.34754585    38.60153304    28.17985675
H     67.60092045    39.17786917    37.63021115
H     64.59357734    36.84145800    33.03356731
32
stage3:NPT step 150, QM E = -2758443.855591 kJ/mol
N     67.79545688    38.88568077    36.58830010
C     67.25446863    37.83356476    35.90297176
H     66.81098983    36.95017283    36.33810995
N     67.46554870    37.90904782    34.63645161
C     68.10566406    39.12227795    34.42076687
C     68.24756095    39.89695855    33.22746719
O     67.83155425    39.75582799    32.07133775
N     69.05502055    41.03317964    33.52435106
H     69.33101790    41.65186511    32.77524909
C     69.17571842    41.59901496    34.78669640
N     69.69349843    42.85266950    34.77117968
H     70.12131257    43.12636982    33.89815988
H     70.34376815    43.02292783    35.52501098
N     68.74980232    41.02071519    35.90409556
C     68.26645089    39.73736089    35.66921884
C     65.43920320    38.04519709    29.21772048
N     64.20592476    38.37403085    29.11443849
C     65.84008749    37.81563689    30.59978943
C     63.75183679    38.42576817    30.37432131
N     64.60480916    37.99098309    31.26321607
C     64.40693020    37.96180177    32.66828789
N     66.30220910    38.08472432    28.04613259
C     67.04632238    37.65765368    31.17759650
H     62.76698278    38.79147339    30.63325424
H     65.13101236    38.58327997    33.20947071
H     63.43638903    38.35290740    32.99767403
O     65.81664512    37.62830807    26.99212252
H     67.87188071    37.64709643    30.46901625
H     67.18499334    37.45869767    32.23822413
O     67.33092256    38.64197140    28.23349438
H     67.61920141    39.12284864    37.59811369
H     64.51746929    36.92307100    33.02832351
32
stage3:NPT step 160, QM E = -2758376.223951 kJ/mol
N     67.79965507    38.87182274    36.58905268
C     67.31108233    37.77144990    35.90962662
H     66.76499018    37.02707918    36.47006906
N     67.47252874    37.89113080    34.59987556
C     68.08735821    39.11686774    34.43829345
C     68.27035366    39.93427881    33.18289631
O     67.79424695    39.81376159    32.05000606
N     69.02509077    41.03376458    33.46122418
H     69.48152041    41.37167457    32.62600635
C     69.17031395    41.57444933    34.72301873
N     69.63763218    42.85134065    34.73491496
H     69.62940636    43.24751446    33.80588904
H     70.38359327    43.20433414    35.31717415
N     68.84883339    41.01992091    35.85626350
C     68.36554329    39.78574048    35.63947257
C     65.46001271    38.01415482    29.25483452
N     64.21119897    38.38012522    29.09923900
C     65.83428845    37.77313601    30.60189838
C     63.74351847    38.45138924    30.39540510
N     64.62029996    38.01594651    31.26432544
C     64.36444270    38.02736577    32.69343366
N     66.29520523    38.06887125    28.06413257
C     67.05570782    37.67393102    31.19287530
H     62.76631293    38.76182808    30.74097862
H     65.08415845    38.70137760    33.17420028
H     63.31463024    38.34381776    32.72777723
O     65.88406718    37.61183518    27.06489020
H     67.98427420    37.76532486    30.63327137
H     67.23631954    37.40246190    32.23086751
O     67.37671829    38.68623643    28.27273851
H     67.63270503    39.09688444    37.59348082
H     64.45084320    37.00192327    33.07445603
32
stage3:NPT step 170, QM E = -2758312.036174 kJ/mol
N     67.81156460    38.87163050    36.58024345
C     67.38394897    37.78246589    35.87699065
H     66.90918418    36.93923672    36.35653535
N     67.45767919    37.89864999    34.59221678
C     68.07723893    39.14563740    34.37289806
C     68.23620543    39.89620686    33.19014221
O     67.78166690    39.81407282    32.04625706
N     69.02132297    41.05745823    33.42488123
H     69.45977395    41.54819221    32.65869522
C     69.20861010    41.60182253    34.65378855
N     69.59331986    42.88008632    34.63343367
H     69.53138478    43.47143954    33.81700716
H     70.12722903    43.22296573    35.41923015
N     68.93503242    40.95331808    35.80032305
C     68.37440751    39.70255344    35.61818413
C     65.43863579    38.03343122    29.23764114
N     64.20395529    38.37201659    29.11349497
C     65.85832810    37.77374933    30.60417463
C     63.75289591    38.41340916    30.37190177
N     64.64562825    38.08009763    31.28087288
C     64.31245165    38.06453598    32.68759364
N     66.36343795    38.10035531    28.12640287
C     67.06093069    37.66550519    31.21689252
H     62.72812222    38.68292804    30.59081400
H     64.96577492    38.75812412    33.23120470
H     63.29593348    38.43604393    32.86670629
O     65.94540769    37.58574007    27.10093053
H     67.96859116    37.77512834    30.62707909
H     67.10709624    37.55655050    32.29843733
O     67.38305978    38.68247917    28.28944398
H     67.63742372    39.11080243    37.60384601
H     64.39407005    37.03849556    33.12631226
32
stage3:NPT step 190, QM E = -2758553.294383 kJ/mol
N     67.91112456    38.86355682    36.51843334
C     67.36942940    37.79595354    35.84465239
H     66.97401762    36.98515308    36.43849763
N     67.41409518    37.90933070    34.54248208
C     68.04687646    39.17982116    34.34122335
C     68.23746900    39.90804896    33.14633187
O     67.80096005    39.66989041    31.99982510
N     68.95065894    41.07532885    33.33336880
H     69.01739211    41.68251103    32.52902031
C     69.21920196    41.62529505    34.59913662
N     69.61148109    42.89500321    34.61513997
H     70.05461537    43.17867844    33.75301369
H     69.09725115    43.56808613    35.16525389
N     69.08145811    40.92256315    35.69393126
C     68.38032141    39.74451042    35.53338351
C     65.49228408    38.12227772    29.28618425
N     64.21474841    38.30424815    29.09424375
C     65.83021321    37.99619161    30.67125053
C     63.68283028    38.31497763    30.34994194
N     64.60031316    38.11863433    31.30246153
C     64.28417118    38.08423306    32.73692142
N     66.42752859    38.12065516    28.14301506
C     67.01069942    37.66427769    31.29144616
H     62.64215224    38.44991189    30.61358194
H     64.96408783    38.74662267    33.28679659
H     63.26726646    38.48694206    32.82141512
O     66.02693993    37.54244130    27.14777504
H     67.87948761    37.34874478    30.71752153
H     67.00903565    37.41851776    32.35132538
O     67.45852706    38.67810852    28.38780444
H     67.77105187    39.11773285    37.53294312
H     64.25764438    37.05508698    33.16005271
32
stage3:NPT step 200, QM E = -2758749.267785 kJ/mol
N     67.95705255    38.88021651    36.47700327
C     67.35231643    37.83571302    35.83433454
H     66.73566565    37.08936134    36.31297949
N     67.39433292    37.94168085    34.54215642
C     68.01131256    39.13654470    34.32341973
C     68.24649265    39.86427162    33.08072892
O     67.83752965    39.56790260    31.95733569
N     68.87386044    41.10900346    33.30449934
H     69.20765432    41.60548313    32.49074850
C     69.20882348    41.58345446    34.53391731
N     69.67147077    42.89265067    34.60673582
H     70.29431065    43.30140977    33.92476584
H     69.02711132    43.52795316    35.05539160
N     69.07146041    40.95315309    35.70394843
C     68.41935290    39.76626595    35.53049986
C     65.49473750    38.18103378    29.33138468
N     64.21335813    38.24090359    29.12782607
C     65.84415979    38.11469215    30.71364463
C     63.67092369    38.26763823    30.34224351
N     64.55138188    38.11650729    31.30554340
C     64.25677571    38.09748929    32.73258494
N     66.41923255    38.11256057    28.20906686
C     66.96889278    37.67021706    31.35420999
H     62.60538295    38.35071759    30.51089945
H     65.02737627    38.65669304    33.27744769
H     63.29654830    38.61339315    32.85592054
O     66.05648989    37.57934172    27.18381867
H     67.87584709    37.60391665    30.75689543
H     66.95623746    37.29232503    32.37439980
O     67.51231359    38.67134517    28.41013252
H     67.82793838    39.09888090    37.49941832
H     64.22077510    37.06723042    33.16287533
32
stage3:NPT step 210, QM E = -2758562.768056 kJ/mol
N     67.96783665    38.88870093    36.49872405
C     67.29603203    37.87379594    35.81755062
H     66.79486937    37.09128273    36.36792239
N     67.35389305    37.98362677    34.51564863
C     68.05344247    39.15831676    34.28535993
C     68.24009867    39.82750341    33.06139268
O     67.89963980    39.46371603    31.90005606
N     68.81702807    41.06838724    33.28606257
H     69.17306828    41.54948076    32.47249974
C     69.22675921    41.61784344    34.53770110
N     69.74997131    42.85562983    34.59599351
H     70.16190209    43.24080855    33.75811103
H     69.25942895    43.48365443    35.21651482
N     69.00593042    40.94409735    35.64591395
C     68.43520841    39.73324176    35.47363235
C     65.50383083    38.23120834    29.38235237
N     64.21690386    38.18788339    29.11076506
C     65.79882383    38.16166792    30.76207536
C     63.64418482    38.20168581    30.35731302
N     64.54285932    38.13511144    31.33025954
C     64.22734805    38.09729009    32.74632713
N     66.44418255    38.14921493    28.26650311
C     66.96219826    37.73761655    31.39351788
H     62.60759504    38.26016492    30.66192084
H     65.04595897    38.66247571    33.20876809
H     63.26033301    38.58476052    32.92145268
O     66.06694172    37.63872466    27.25190134
H     67.88689678    37.65262927    30.82655064
H     66.98576822    37.26312082    32.37231333
O     67.52694162    38.64278476    28.42783175
H     67.91149137    39.12947636    37.51676498
H     64.18916675    37.07500658    33.14883722
32
stage3:NPT step 220, QM E = -2758654.552169 kJ/mol
N     67.97824701    38.90943540    36.45805169
C     67.26936400    37.90949285    35.81046943
H     66.84304981    37.06589183    36.33295730
N     67.29315607    38.00562798    34.51508908
C     68.05659617    39.11619710    34.25881027
C     68.23623154    39.80957012    33.04947352
O     67.98541996    39.37632711    31.87410691
N     68.83889538    41.05414239    33.25954623
H     68.98128618    41.57064528    32.40336306
C     69.19035672    41.59119813    34.51136346
N     69.82381348    42.80321165    34.55354062
H     69.88986489    43.25617741    33.65323588
H     69.89978344    43.38285853    35.37715605
N     68.95095244    40.91902404    35.60141781
C     68.42504485    39.72382639    35.47373465
C     65.48715029    38.23771755    29.41318769
N     64.19521179    38.15884419    29.15799681
C     65.78540108    38.16058617    30.78432807
C     63.64262634    38.13575772    30.34831626
N     64.52806483    38.15350819    31.35246843
C     64.21393529    38.11580776    32.76284114
N     66.45651567    38.21574656    28.32602381
C     67.02292828    37.87479854    31.42579071
H     62.57195966    38.12560160    30.50418101
H     64.89032367    38.69306035    33.40524497
H     63.22359170    38.57704324    32.86230590
O     66.02572454    37.68214718    27.30169336
H     67.71131358    37.42528151    30.71318704
H     66.93600252    37.42180237    32.41117470
O     67.57610621    38.65467096    28.49349321
H     67.95483020    39.17441764    37.49798376
H     64.18001726    37.06876443    33.16358565
32
stage3:NPT step 230, QM E = -2758726.814232 kJ/mol
N     67.97710718    38.93402472    36.45640886
C     67.26962191    37.89896716    35.82349656
H     66.70945454    37.15013250    36.36373646
N     67.24362344    37.98072770    34.53170293
C     68.01364901    39.08828477    34.25340626
C     68.26044527    39.76734271    33.06645252
O     68.05151737    39.31813998    31.83676868
N     68.85639938    41.03787129    33.19823036
H     69.13265358    41.61712336    32.41832610
C     69.16929796    41.56368708    34.45061292
N     69.84658160    42.71228969    34.45112788
H     69.90918215    43.44660647    33.76050495
H     70.39085153    42.82985015    35.29377243
N     68.94821251    40.94323274    35.61764984
C     68.39483205    39.72683478    35.43304958
C     65.50710603    38.20726909    29.44995406
N     64.17796023    38.14907515    29.18014433
C     65.80114470    38.19523749    30.78728116
C     63.61221287    38.08978010    30.37200662
N     64.53231857    38.16116000    31.38002280
C     64.14560391    38.10416713    32.80280763
N     66.43774457    38.25391063    28.36065683
C     67.10595752    38.04484173    31.47818320
H     62.56584992    37.93334740    30.59867244
H     64.88275604    38.75061447    33.29486614
H     63.11619972    38.47804618    32.86566048
O     65.99360933    37.75033361    27.35641481
H     67.85557697    37.53766117    30.87437640
H     67.08135849    37.58666621    32.46469937
O     67.59552068    38.67924376    28.58423370
H     67.97663670    39.15579119    37.46500813
H     64.17504636    37.07529009    33.18724662
32
stage3:NPT step 240, QM E = -2758632.006326 kJ/mol
N     67.96162343    38.87974046    36.42212064
C     67.24982281    37.87110420    35.85265971
H     66.73678987    37.14430908    36.46500444
N     67.22334389    37.92845956    34.55727458
C     67.94485844    39.12436843    34.23772655
C     68.28636106    39.72804341    33.01260195
O     68.06920433    39.32198613    31.80971272
N     68.84096015    40.94799215    33.15534922
H     69.39667854    41.20898137    32.35337560
C     69.18255534    41.52437291    34.37222374
N     69.87832193    42.64033585    34.40378587
H     70.16139520    43.14372114    33.57518881
H     70.60135634    42.68853998    35.10734662
N     68.96084995    40.95636836    35.55735309
C     68.38096816    39.76700997    35.44177247
C     65.48643500    38.20827249    29.49969135
N     64.18843524    38.12372570    29.21843935
C     65.82360979    38.28507949    30.85605832
C     63.63839131    38.07207557    30.40408153
N     64.54068147    38.14956096    31.41195855
C     64.11374146    38.09446558    32.77825583
N     66.44190440    38.26910960    28.43681154
C     67.23721523    38.20553528    31.56697221
H     62.59865369    37.93420481    30.66990354
H     64.71659140    38.71392799    33.45371665
H     63.09560408    38.48155816    32.90850420
O     66.01342636    37.84641425    27.36554634
H     67.83835614    37.62609374    30.86938969
H     67.02407869    37.59370671    32.44103315
O     67.53057955    38.68629736    28.65593899
H     67.98821321    39.14534762    37.44709124
H     64.18065981    37.05920999    33.18579650
32
stage3:NPT step 250, QM E = -2758913.882532 kJ/mol
N     67.98947315    38.91890528    36.43319721
C     67.24575135    37.84200176    35.84474276
H     66.88063495    36.98590637    36.39263937
N     67.23688293    37.92258113    34.55512862
C     67.84596067    39.09421854    34.24522160
C     68.23433366    39.67773649    33.06232962
O     68.05549654    39.38888769    31.76134464
N     68.89942158    40.88168667    33.10189070
H     69.37396690    41.23584149    32.28367245
C     69.24533276    41.46325716    34.32821454
N     69.97074425    42.60247380    34.29541008
H     70.41991942    42.76691388    33.40585901
H     70.34976763    43.00385029    35.14118675
N     68.94598110    40.90341605    35.48240565
C     68.31942876    39.73030863    35.41283626
C     65.51389776    38.25373754    29.59000252
N     64.19357266    38.07281991    29.26890673
C     65.84939045    38.39656817    30.92656436
C     63.67330014    38.06261085    30.45037858
N     64.59448298    38.16641638    31.45729609
C     64.12041705    38.06998347    32.82327500
N     66.37488718    38.25358247    28.47522496
C     67.22973855    38.20253174    31.56525424
H     62.59910810    38.07096201    30.57986110
H     64.71418841    38.78126851    33.41057227
H     63.05770139    38.32863476    32.73875350
O     66.06344630    37.94420196    27.35351460
H     67.76576979    37.56878085    30.86185222
H     67.24058406    37.74201496    32.55092695
O     67.52365810    38.70912796    28.74884920
H     68.00647582    39.16888428    37.42582493
H     64.19236078    37.03346707    33.16678499
32
stage3:NPT step 260, QM E = -2758877.722122 kJ/mol
N     67.94922085    38.87897188    36.41048797
C     67.32863919    37.84048402    35.84611437
H     66.94363219    37.02408511    36.43912570
N     67.20032898    37.88245720    34.55392529
C     67.80441694    39.08891073    34.20601039
C     68.19657545    39.73517384    32.99467051
O     67.98796880    39.41932369    31.76496325
N     68.99568961    40.82529074    33.11948437
H     69.00549543    41.37353620    32.27129172
C     69.35914188    41.41474567    34.28019621
N     70.05977167    42.51766553    34.15420788
H     70.63816040    42.89925783    33.41939246
H     69.84815880    43.19607381    34.87190022
N     68.93159975    40.85474731    35.43902159
C     68.27186312    39.73285163    35.36125166
C     65.51448613    38.29047166    29.57397019
N     64.26296342    38.03154103    29.33890105
C     65.84247638    38.42444927    30.93902071
C     63.69031275    38.07194392    30.52717191
N     64.60427942    38.23265170    31.52261175
C     64.12517165    38.05552712    32.84291278
N     66.45129971    38.32661802    28.48281928
C     67.17374982    38.15680196    31.52014712
H     62.65400907    38.02699872    30.83503326
H     64.63110361    38.64457091    33.61781228
H     63.07740448    38.36876243    32.92937987
O     66.07952394    38.02782257    27.35689442
H     67.86163450    37.63494915    30.85815896
H     67.01464858    37.57698742    32.42692494
O     67.49787812    38.70689149    28.83911550
H     67.95018442    39.17268393    37.44214741
H     64.24674435    36.98574506    33.15953437
32
stage3:NPT step 270, QM E = -2758697.236114 kJ/mol
N     67.91370947    38.93616786    36.41855088
C     67.35078249    37.76718141    35.83234298
H     66.95715580    36.98503072    36.46455998
N     67.17428568    37.84750956    34.52681767
C     67.80331265    39.09158829    34.14641225
C     68.17340889    39.73561165    32.98302921
O     67.84278319    39.38489069    31.76416477
N     69.03153631    40.76830271    33.06029835
H     69.22021359    41.38540495    32.28332522
C     69.42053336    41.33103865    34.26383404
N     70.12441788    42.48912598    34.11526299
H     70.51747569    42.62320522    33.19459514
H     69.92487762    43.29572668    34.68943652
N     68.99825396    40.89699452    35.40364589
C     68.25185906    39.74467458    35.33125162
C     65.52759370    38.31354061    29.57084160
N     64.21238113    38.01616441    29.39483383
C     65.82529200    38.39079045    30.88332987
C     63.71889869    38.09138541    30.58934883
N     64.60125080    38.32112371    31.56208851
C     64.18202530    37.99995555    32.96065150
N     66.43289722    38.40731555    28.48203096
C     67.13305763    38.16103346    31.50079701
H     62.67990530    37.83892789    30.75512603
H     64.80508567    38.62092442    33.61609001
H     63.11317697    38.24383142    32.99930090
O     66.10082607    38.11432707    27.37816082
H     67.71449048    37.64065461    30.74258360
H     67.10094670    37.59395093    32.42876554
O     67.62308920    38.73743952    28.90087549
H     67.91121426    39.16347671    37.44610808
H     64.28742556    36.93655043    33.20449393
32
stage3:NPT step 280, QM E = -2758564.851983 kJ/mol
N     67.86022363    38.93217425    36.36530775
C     67.31715610    37.80764480    35.78647186
H     67.05738595    36.92368709    36.34997718
N     67.22942586    37.87363797    34.51391339
C     67.81454630    39.07545918    34.22659903
C     68.14772538    39.64358388    32.95190540
O     67.74004489    39.39487832    31.75306568
N     69.03641432    40.73806032    32.99513857
H     69.50071496    40.95309316    32.12434250
C     69.44467119    41.36051711    34.23518822
N     70.16481562    42.42191090    34.08337388
H     70.46136973    42.73635832    33.17053302
H     70.45123492    43.06795753    34.80496127
N     69.03002077    40.86762804    35.42918307
C     68.29508114    39.78488793    35.36208720
C     65.46319839    38.30784083    29.57838698
N     64.15594493    38.05716222    29.38423523
C     65.79474861    38.35617395    30.93776061
C     63.65357836    38.08632064    30.60286979
N     64.62235399    38.29652927    31.60079504
C     64.29684127    38.01030785    33.01111176
N     66.52871619    38.48290899    28.54586470
C     67.12013389    38.14500530    31.50141538
H     62.62992320    37.88750392    30.89153225
H     64.91452524    38.54670976    33.74196640
H     63.27376499    38.35881562    33.19890496
O     66.14271022    38.21833390    27.41174569
H     67.77200297    37.65481603    30.78132856
H     67.10492435    37.53215757    32.40026477
O     67.65199829    38.74873954    28.86290847
H     67.87921794    39.14677962    37.41160574
H     64.37596135    36.91183865    33.24788486
32
stage3:NPT step 290, QM E = -2758557.125410 kJ/mol
N     67.83682419    38.93147919    36.39535634
C     67.26681440    37.84648464    35.78465829
H     66.95543610    37.00935207    36.39182599
N     67.28997941    37.90328558    34.48122023
C     67.87927580    39.10995948    34.18376386
C     68.17063210    39.64751787    32.98243914
O     67.70697263    39.43313427    31.77349478
N     68.99711466    40.66496867    33.04445414
H     69.55198324    40.98657592    32.26420442
C     69.37244612    41.31293633    34.17036200
N     70.24055504    42.39248117    34.06514673
H     70.47864469    42.92612643    33.24135303
H     70.82112007    42.36929831    34.89128644
N     69.06881613    40.87585494    35.41290354
C     68.31337433    39.72635265    35.38022449
C     65.46004118    38.30756742    29.63564772
N     64.10632169    38.14907243    29.39043838
C     65.76765028    38.30228111    30.93884175
C     63.61237078    38.09631387    30.63528645
N     64.55126590    38.16388217    31.60273091
C     64.40635166    37.98985514    33.05132217
N     66.49054713    38.47141675    28.56986233
C     67.11633717    38.07998067    31.49917172
H     62.56163137    38.08211086    30.89310222
H     65.22486912    38.53925499    33.53256852
H     63.39932025    38.34409875    33.30392501
O     66.19492998    38.33558546    27.44425052
H     67.80869209    37.63599771    30.78694436
H     67.05916631    37.52771149    32.43483953
O     67.69145837    38.77161235    28.83730110
H     67.84731011    39.10466366    37.42038440
H     64.46318988    36.90267582    33.25412108
